1885
1885.55
1886.11
1886.66
1887.21
1887.76
1888.32
1888.87
1889.42
1889.97
1890.53
1891.08
1891.63
1892.19
1892.74
1893.29
1893.84
1894.4
1894.95
1895.5
1896.06
1896.61
1897.16
1897.71
1898.27
1898.82
1899.37
1899.92
1900.48
1901.03
1901.58
1902.14
1902.69
1903.24
1903.79
1904.35
1904.9
1905.45
1906.01
1906.56
1907.11
1907.66
1908.22
1908.77
1909.32
1909.87
1910.43
1910.98
1911.53
1912.09
1912.64
1913.19
1913.74
1914.3
1914.85
1915.4
1915.95
1916.51
1917.06
1917.61
1918.17
1918.72
1919.27
1919.82
1920.38
1920.93
1921.48
1922.04
1922.59
1923.14
1923.69
1924.25
1924.8
1925.35
1925.9
1926.46
1927.01
1927.56
1928.12
1928.67
1929.22
1929.77
1930.33
1930.88
1931.43
1931.98
1932.54
1933.09
1933.64
1934.2
1934.75
1935.3
1935.85
1936.41
1936.96
1937.51
1938.07
1938.62
1939.17
1939.72
1940.28
1940.83
1941.38
1941.93
1942.49
1943.04
1943.59
1944.15
1944.7
1945.25
1945.8
1946.36
1946.91
1947.46
1948.02
1948.57
1949.12
1949.67
1950.23
1950.78
1951.33
1951.88
1952.44
1952.99
1953.54
1954.1
1954.65
1955.2
1955.75
1956.31
1956.86
1957.41
1957.96
1958.52
1959.07
1959.62
1960.18
1960.73
1961.28
1961.83
1962.39
1962.94
1963.49
1964.05
1964.6
1965.15
1965.7
1966.26
1966.81
1967.36
1967.91
1968.47
1969.02
1969.57
1970.13
1970.68
1971.23
1971.78
1972.34
1972.89
1973.44
1973.99
1974.55
1975.1
1975.65
1976.21
1976.76
1977.31
1977.86
1978.42
1978.97
1979.52
1980.08
1980.63
1981.18
1981.73
1982.29
1982.84
1983.39
1983.94
1984.5
1985.05
1985.6
1986.16
1986.71
1987.26
1987.81
1988.37
1988.92
1989.47
1990.03
1990.58
1991.13
1991.68
1992.24
1992.79
1993.34
1993.89
1994.45
1995
